12 0 7 0 7 0 9 0 12 0 12 0 14 0 12 0
12 0 9 0 12 0 14 0 14 0 16 0 14 0 12 0 9 0 12 0 16 0
17 0 16 0 14 0 14 0 14 0 16 0 14 0 12 0 9 0 12 0 16 0 14 0 12 0 
12 0 9 0 12 0 14 0 14 0 16 0 14 0 12 0 9 0 7 0 9 0 
9 0 11 0 9 0 12 0 9 0 11 0 9 0 12 0 12 0 11 0 7 0 7 0 
9 0 11 0 9 0 12 0 9 0 11 0 9 0 12 0 12 0 14 0 12 0 16 0 
16 0 12 0 14 0 12 0 12 0 14 0 12 0 16 0 14 0 
25 0 17 0 16 0 14 0 16 0 24 0 23 0 21 0 21 0 19 0 25 0 17 0 16 0 14 0 16 0 19 0 19 0 
25 0 17 0 16 0 14 0 16 0 24 0 23 0 21 0 21 0 19 0 25 0 17 0 16 0 14 0 16 0 12 0 16 0 17 0 19 0 14 0 
25 0 9 0 9 0 9 0 7 0 25 0 5 0 5 0 4 0 2 0 
25 0 9 0 9 0 11 0 9 0 9 0 7 0 5 0 4 0 2 0 